56
9437 2521
2005 9747
-9090 -3759
7136 -3096
9460 7868
6968 2260
-414 -2991
-7702 6830
1609 -266
4104 -5318
-5375 -3957
5815 9830
3180 -9702
8016 -3285
288 4914
7869 -4829
-9062 6436
-62 1205
-4060 -4523
-6 4414
9612 4942
4976 -6229
-553 6777
8906 7717
1101 -4086
-9048 7006
-6607 -9329
733 -481
6862 -900
-1286 -6007
5488 -7628
9882 9238
2019 8108
8958 -4154
-9309 -59
-5818 -8110
-5583 -9161
4149 6974
-1462 -5788
4077 -713
7868 -9302
-6913 539
4810 -5332
-2067 -7938
6971 1873
-3361 8630
5472 6640
-6648 -2095
-7782 -9617
6484 -4400
-6912 6418
2619 8872
-6661 -9644
-5338 8789
-2222 6808
-1868 3341
